(declare-const term_to_project_onto1 Real)
(declare-const term_to_project_onto2 Real)
(declare-const tmp Int)
(declare-const term_to_project_onto Real)
(declare-const term_to_project_onto3 Real)
(declare-const y Int)
(declare-const term_to_project_onto0 Real)
(assert (exists
         ((uninterp?1 Int) (uninterp?2 Int) (uninterp?3 Int) (|tmp'?4| Int)
            (|c'?5| Int) (|y'?6| Int) (|x'?7| Int) (|counter'?8| Int)
            (c?9 Int) (k?10 Int) (x?11 Int) (counter?12 Int) (a?13 Int))
         (and (<= (+ (- c?9) 1) 0) (<= (- counter?12) 0)
                (= (+ counter?12 (- c?9) 1) 0) (<= (+ counter?12 -49) 0)
                (= (+ (- uninterp?3) a?13 (- x?11) uninterp?2) 0)
                (<= (+ (- k?10) c?9 1) 0) (= (+ |tmp'?4| (- counter?12)) 0)
                (= (+ |c'?5| (- c?9) -1) 0) (= (+ |y'?6| (- uninterp?1)) 0)
                (= (+ |x'?7| (- a?13) (- uninterp?2)) 0)
                (= (+ |counter'?8| (- counter?12) -1) 0)
                (= term_to_project_onto3 (+ |counter'?8| (- counter?12)))
                (= term_to_project_onto2 (+ |x'?7| (- x?11)))
                (= term_to_project_onto1 (+ |y'?6| (- y)))
                (= term_to_project_onto0 (+ |c'?5| (- c?9)))
                (= term_to_project_onto (+ |tmp'?4| (- tmp))))))
(check-sat)
